p tw 298 333
1 2
2 113
3 14
4 5
5 6
6 7
7 8
7 23
8 9
8 11
9 10
10 89
11 12
12 13
13 15
14 25
15 16
16 17
17 18
18 19
19 20
20 21
21 22
22 89
23 24
24 26
24 29
25 36
26 27
27 28
28 89
29 30
30 31
31 32
32 33
33 34
34 35
34 38
35 37
36 47
37 38
37 86
38 39
39 40
40 41
41 42
41 52
42 43
43 44
44 45
45 46
46 48
47 58
48 49
49 50
50 51
51 52
52 53
53 54
54 55
55 56
56 57
57 59
58 69
59 60
60 61
61 62
61 63
62 63
62 74
63 64
64 65
65 66
66 67
67 68
68 70
69 80
70 71
71 72
72 73
73 74
74 75
75 76
76 77
77 78
78 79
79 81
79 83
80 91
81 82
82 89
83 84
84 85
85 89
86 87
87 88
88 89
89 90
90 92
91 102
92 93
92 103
93 94
94 95
95 96
96 97
97 98
98 99
99 100
100 101
101 103
102 114
103 104
104 105
105 106
106 107
107 108
108 109
108 111
109 110
110 111
110 116
111 112
112 115
113 222
114 125
115 103
116 117
117 118
118 119
118 123
119 120
120 121
121 122
122 123
123 124
124 126
125 136
126 127
127 128
128 129
128 131
129 130
130 131
130 134
131 132
132 133
133 123
134 135
135 137
136 147
137 138
137 145
138 139
139 140
139 145
140 141
141 142
142 143
143 144
144 145
144 156
145 146
146 148
147 158
148 149
149 150
150 151
151 152
152 153
153 154
154 155
155 156
156 157
157 159
158 169
159 160
160 161
161 162
162 163
163 164
164 165
165 166
165 168
166 167
167 176
168 170
169 180
170 171
171 172
172 173
173 174
174 175
175 176
175 224
176 177
177 178
178 179
179 181
180 191
181 182
181 192
182 183
183 184
184 185
185 186
186 187
187 188
188 189
189 190
190 192
191 202
192 193
193 194
194 195
195 196
196 197
196 199
197 198
198 199
198 203
199 200
200 201
201 192
202 213
203 204
204 205
204 224
205 206
206 207
206 224
207 208
208 209
208 224
209 210
210 211
211 212
212 214
213 223
214 215
215 216
216 217
217 218
218 219
219 224
220 221
222 233
223 224
224 225
225 226
226 227
227 228
227 237
228 229
229 230
230 231
231 232
232 234
233 244
234 235
235 236
236 237
236 220
237 238
238 239
239 240
240 241
241 242
242 243
242 246
243 245
244 255
245 246
245 249
246 247
247 248
248 237
249 250
250 251
250 224
251 252
252 253
252 260
253 254
254 256
255 266
256 257
257 258
257 224
258 259
259 253
260 261
261 262
262 263
262 265
263 264
264 224
265 267
266 277
267 268
268 269
268 280
269 270
270 271
271 272
272 273
273 274
274 275
275 276
276 278
277 288
278 279
279 298
280 281
281 282
282 283
283 284
284 285
285 286
286 287
287 289
287 298
288 3
289 290
290 291
291 292
292 293
293 294
294 295
295 296
296 297
297 298
298 4
